p cnf 100 442
11 2 67 0
-21 56 -88 0
5 -10 66 0
13 -62 68 0
-21 5 -89 0
52 -13 -64 0
18 -8 29 0
-16 3 18 0
-36 -11 -30 0
-50 20 32 0
-6 9 35 0
42 -38 29 0
43 -15 10 0
-48 -47 1 0
-45 -16 33 0
38 42 22 0
-49 41 -34 0
12 17 35 0
22 -49 7 0
-10 -11 -39 0
-28 -36 -37 0
-13 -46 -41 0
21 -4 9 0
12 48 10 0
24 23 15 0
-8 -41 -43 0
-44 -2 -35 0
-27 18 31 0
47 35 6 0
-11 -27 41 0
-33 -47 -45 0
-16 36 -37 0
27 -46 2 0
15 -28 10 0
-38 46 -39 0
-33 -4 24 0
-12 -45 50 0
-32 -21 -15 0
8 42 24 0
30 -49 4 0
45 -9 28 0
-33 -47 -1 0
1 27 -16 0
-11 -17 -35 0
-42 -15 45 0
-19 -27 30 0
3 28 12 0
48 -11 -33 0
-6 37 -9 0
-37 13 -7 0
-2 26 16 0
46 -24 -38 0
-13 -24 -8 0
-36 -42 -21 0
-37 -19 3 0
-31 -50 35 0
-7 -26 29 0
-42 -45 29 0
33 25 -6 0
-45 -5 7 0
-7 28 -6 0
-48 31 -11 0
32 16 -37 0
-24 48 1 0
18 -46 23 0
-30 -50 48 0
-21 39 -2 0
24 47 42 0
-36 30 4 0
-5 28 -1 0
-47 32 -42 0
16 37 -22 0
-43 42 -34 0
-40 39 -20 0
-49 29 6 0
-41 -3 39 0
-16 -12 43 0
24 22 3 0
47 -45 43 0
45 -37 46 0
-9 26 5 0
-3 23 -13 0
5 -34 13 0
12 39 13 0
22 50 37 0
19 9 46 0
-24 8 -27 0
-28 7 21 0
8 -25 50 0
20 50 4 0
27 36 13 0
26 31 -25 0
39 -44 -32 0
-20 41 -10 0
49 -28 35 0
1 44 34 0
39 35 -11 0
-50 -42 -7 0
-24 7 47 0
-13 5 -48 0
-9 -20 -23 0
2 17 -19 0
11 23 21 0
-45 30 15 0
11 26 -24 0
38 33 -13 0
44 -27 -7 0
41 49 2 0
-18 12 -37 0
-2 12 -26 0
-19 7 32 0
-22 11 33 0
8 12 -20 0
16 40 -48 0
-2 -24 -11 0
26 -17 37 0
-14 -19 46 0
5 47 36 0
-29 -9 19 0
32 4 28 0
-34 20 -46 0
-4 -36 -13 0
-15 -37 45 0
-21 29 23 0
-6 -40 7 0
-42 31 -29 0
-36 24 31 0
-45 -37 -1 0
3 -6 -29 0
-28 -50 27 0
44 26 5 0
-17 -48 49 0
12 -40 -7 0
-12 31 -48 0
27 32 -42 0
-27 -10 1 0
6 -49 10 0
-24 8 43 0
23 31 1 0
11 -47 38 0
-28 26 -13 0
-40 12 -42 0
-3 39 46 0
17 41 46 0
23 21 13 0
-14 -1 -38 0
20 18 6 0
-50 20 -9 0
10 -32 -18 0
-21 49 -34 0
44 23 -35 0
40 -19 34 0
-1 6 -12 0
6 -2 -7 0
32 -20 34 0
-12 43 -29 0
24 2 -49 0
10 -4 40 0
11 5 12 0
-3 47 -31 0
43 -23 21 0
-41 -36 -50 0
-8 -42 -24 0
39 45 7 0
7 37 -45 0
41 40 8 0
-50 -10 -8 0
-5 -39 -14 0
-22 -24 -43 0
-36 40 35 0
17 49 41 0
-32 7 24 0
-30 -8 -9 0
-41 -13 -10 0
31 26 -33 0
17 -22 -39 0
-21 28 3 0
-14 46 23 0
29 16 19 0
42 -32 -44 0
-24 10 23 0
-1 -32 -21 0
-8 -44 -39 0
39 11 9 0
19 14 -46 0
46 44 -42 0
37 23 -29 0
32 25 20 0
14 -43 -12 0
-36 -18 46 0
14 -26 -10 0
-2 -30 5 0
6 -18 46 0
-26 2 -44 0
20 -8 -11 0
-31 3 16 0
-22 -9 39 0
-49 44 -42 0
-45 -44 31 0
-31 50 -11 0
-32 -46 2 0
-6 -7 17 0
19 -32 48 0
39 20 -10 0
-22 -37 38 0
-31 9 -48 0
40 12 7 0
-24 -4 9 0
-22 49 33 0
-12 43 10 0
25 -30 -10 0
46 47 31 0
13 27 -7 0
-45 32 -35 0
-50 34 9 0
2 34 30 0
3 16 2 0
-18 45 -12 0
33 37 10 0
43 7 -18 0
-22 44 -19 0
-31 -27 -42 0
-3 -40 8 0
-23 -31 38 0
-55 76 98 0
65 -54 78 0
-74 -100 76 0
84 74 85 0
-82 -66 96 0
-95 71 52 0
57 78 51 0
89 -63 -61 0
75 -79 68 0
76 71 -91 0
-76 -55 -57 0
100 55 58 0
61 59 -83 0
-66 99 -55 0
-58 84 63 0
-84 81 -79 0
-71 57 -80 0
-99 -68 -59 0
57 -55 -80 0
55 -94 -71 0
91 75 56 0
95 86 -69 0
-74 -63 -94 0
-64 100 88 0
82 -65 68 0
-78 -72 -84 0
96 86 -84 0
-90 84 60 0
67 80 51 0
-78 55 76 0
-54 84 79 0
85 -62 55 0
-66 98 -75 0
65 93 -78 0
-97 -70 64 0
-96 -60 99 0
-68 88 -72 0
-52 -78 -84 0
-53 92 90 0
-69 -57 76 0
52 -93 -61 0
-68 -93 -74 0
76 80 -65 0
-56 -58 -82 0
-51 -56 -99 0
78 89 64 0
-99 96 85 0
-100 -80 -69 0
73 -81 63 0
63 -57 -55 0
98 -73 -82 0
68 -96 84 0
-66 82 86 0
60 95 -52 0
-91 -72 90 0
89 -78 -96 0
-59 56 90 0
-98 73 52 0
53 -66 -68 0
-87 79 -99 0
-100 -62 -56 0
-89 -90 100 0
-98 79 -80 0
-73 65 -53 0
68 -55 -70 0
-95 -81 -55 0
-94 -65 76 0
-51 -90 -87 0
67 -62 70 0
-70 85 80 0
-80 97 77 0
73 -87 -88 0
-66 68 -82 0
-63 70 92 0
-92 57 -71 0
-57 -69 87 0
77 69 -76 0
-73 -97 -88 0
99 -68 82 0
-62 95 -94 0
-96 85 -55 0
92 51 55 0
-58 77 -65 0
-95 55 -58 0
-99 -87 91 0
-79 71 93 0
69 95 68 0
91 68 100 0
96 -57 -61 0
-99 81 -72 0
-97 -52 67 0
57 -53 64 0
-97 66 93 0
52 66 -62 0
98 67 -75 0
-65 -52 -100 0
51 97 87 0
-90 68 -78 0
-87 -66 -64 0
92 -76 98 0
65 -58 -54 0
-98 90 92 0
96 94 -80 0
-71 62 -60 0
65 51 63 0
64 -81 63 0
62 91 -92 0
-65 -70 91 0
-88 -62 -77 0
-84 60 85 0
52 84 -82 0
66 63 -67 0
-54 80 60 0
-59 63 64 0
70 -94 -68 0
-56 91 72 0
-63 -71 -85 0
-69 -82 80 0
-81 85 -67 0
53 -90 69 0
-59 -100 98 0
-53 -100 73 0
88 -98 83 0
-72 57 93 0
63 -53 -82 0
82 -97 -87 0
66 84 62 0
91 -59 94 0
79 -91 95 0
80 94 60 0
-100 99 -53 0
-75 -76 -70 0
-97 -70 90 0
-93 56 65 0
95 52 100 0
60 -61 -66 0
99 71 -53 0
-99 -52 -51 0
63 84 -77 0
65 57 -83 0
79 -65 -91 0
-95 58 100 0
77 -94 -55 0
83 99 -93 0
-98 82 -68 0
62 -52 72 0
98 67 74 0
98 -62 -55 0
-87 -85 -52 0
-82 -52 97 0
-93 -71 62 0
-81 53 -83 0
82 -87 85 0
57 -64 73 0
-88 -100 -69 0
72 69 -88 0
86 -58 81 0
-51 -61 -100 0
-57 -88 -92 0
51 81 -88 0
-96 -82 54 0
81 -71 -67 0
74 -91 -55 0
-52 83 73 0
82 -62 97 0
56 76 88 0
-68 90 -95 0
-79 -74 76 0
-68 -99 -84 0
56 -74 -58 0
-60 99 64 0
70 77 63 0
99 89 -86 0
76 -90 81 0
55 -86 -96 0
100 -98 -88 0
-86 -65 -73 0
-61 77 -72 0
79 -76 82 0
-82 -89 -97 0
67 99 -83 0
51 -98 91 0
56 -95 77 0
-81 71 51 0
-71 -94 -59 0
65 92 76 0
-71 -51 93 0
-99 52 56 0
-95 84 71 0
58 -94 68 0
-60 -57 53 0
-88 -97 57 0
-91 89 55 0
97 59 91 0
92 -62 -57 0
70 88 -55 0
-79 -61 77 0
-89 -82 55 0
-100 -74 -77 0
53 -82 92 0
-57 -61 -62 0
-62 -91 -69 0
-86 -63 90 0
78 64 83 0
-70 85 54 0
-86 85 79 0
89 -80 -99 0
-93 -63 -82 0
-69 -96 -72 0
-56 83 88 0
70 93 -89 0
55 90 -96 0
-55 80 69 0
-75 89 -96 0
80 -77 -67 0
-83 -76 66 0
53 -75 -59 0
70 -71 53 0
